
Gurobi 8.0.1 (mac64, Python) logging started Fri Oct  5 16:19:36 2018

Academic license - for non-commercial use only

Gurobi 8.0.1 (mac64, Python) logging started Fri Oct  5 16:22:24 2018

Academic license - for non-commercial use only

Gurobi 8.0.1 (mac64, Python) logging started Fri Oct  5 16:23:32 2018

Academic license - for non-commercial use only

Gurobi 8.0.1 (mac64, Python) logging started Fri Oct  5 16:23:56 2018

Academic license - for non-commercial use only

Gurobi 8.0.1 (mac64, Python) logging started Fri Oct  5 16:25:08 2018

Academic license - for non-commercial use only

Gurobi 8.0.1 (mac64, Python) logging started Fri Oct  5 16:30:52 2018

Academic license - for non-commercial use only

Gurobi 8.0.1 (mac64, Python) logging started Fri Oct  5 16:31:13 2018

Academic license - for non-commercial use only

Gurobi 8.0.1 (mac64, Python) logging started Fri Oct  5 16:32:29 2018

Academic license - for non-commercial use only

Gurobi 8.0.1 (mac64, Python) logging started Fri Oct  5 16:33:28 2018

Academic license - for non-commercial use only

Gurobi 8.0.1 (mac64, Python) logging started Fri Oct  5 16:34:33 2018

Academic license - for non-commercial use only

Gurobi 8.0.1 (mac64, Python) logging started Fri Oct  5 16:49:03 2018

Academic license - for non-commercial use only

Gurobi 8.0.1 (mac64, Python) logging started Fri Oct  5 16:51:40 2018

Academic license - for non-commercial use only

Gurobi 8.0.1 (mac64, Python) logging started Fri Oct  5 16:52:08 2018

Academic license - for non-commercial use only

Gurobi 8.0.1 (mac64, Python) logging started Fri Oct  5 16:53:43 2018

Academic license - for non-commercial use only

Gurobi 8.0.1 (mac64, Python) logging started Fri Oct  5 16:57:19 2018

Academic license - for non-commercial use only

Gurobi 8.0.1 (mac64, Python) logging started Fri Oct  5 16:57:27 2018

Academic license - for non-commercial use only

Gurobi 8.0.1 (mac64, Python) logging started Fri Oct  5 16:58:01 2018

Academic license - for non-commercial use only

Gurobi 8.0.1 (mac64, Python) logging started Fri Oct  5 16:59:51 2018

Academic license - for non-commercial use only

Gurobi 8.0.1 (mac64, Python) logging started Fri Oct  5 17:00:44 2018

Academic license - for non-commercial use only

Gurobi 8.0.1 (mac64, Python) logging started Fri Oct  5 17:01:21 2018

Academic license - for non-commercial use only

Gurobi 8.0.1 (mac64, Python) logging started Fri Oct  5 17:02:48 2018

Academic license - for non-commercial use only

Gurobi 8.0.1 (mac64, Python) logging started Fri Oct  5 17:04:18 2018

Academic license - for non-commercial use only

Gurobi 8.0.1 (mac64, Python) logging started Fri Oct  5 17:07:27 2018

Academic license - for non-commercial use only

Gurobi 8.0.1 (mac64, Python) logging started Fri Oct  5 17:07:59 2018

Academic license - for non-commercial use only

Gurobi 8.0.1 (mac64, Python) logging started Fri Oct  5 17:10:07 2018

Academic license - for non-commercial use only

Gurobi 8.0.1 (mac64, Python) logging started Fri Oct  5 17:10:37 2018

Academic license - for non-commercial use only

Gurobi 8.0.1 (mac64, Python) logging started Fri Oct  5 17:11:32 2018

Academic license - for non-commercial use only

Gurobi 8.0.1 (mac64, Python) logging started Fri Oct  5 17:11:56 2018

Academic license - for non-commercial use only

Gurobi 8.0.1 (mac64, Python) logging started Fri Oct  5 17:14:04 2018

Academic license - for non-commercial use only

Gurobi 8.0.1 (mac64, Python) logging started Fri Oct  5 17:15:05 2018

Academic license - for non-commercial use only

Gurobi 8.0.1 (mac64, Python) logging started Fri Oct  5 17:26:04 2018

Academic license - for non-commercial use only

Gurobi 8.0.1 (mac64, Python) logging started Fri Oct  5 17:27:34 2018

Academic license - for non-commercial use only

Gurobi 8.0.1 (mac64, Python) logging started Fri Oct  5 17:39:34 2018

Academic license - for non-commercial use only

Gurobi 8.0.1 (mac64, Python) logging started Fri Oct  5 17:53:06 2018

Academic license - for non-commercial use only

Gurobi 8.0.1 (mac64, Python) logging started Fri Oct  5 17:53:23 2018

Academic license - for non-commercial use only

Gurobi 8.0.1 (mac64, Python) logging started Fri Oct  5 17:55:22 2018

Academic license - for non-commercial use only

Gurobi 8.0.1 (mac64, Python) logging started Fri Oct  5 17:55:41 2018

Academic license - for non-commercial use only

Gurobi 8.0.1 (mac64, Python) logging started Fri Oct  5 17:56:11 2018

Academic license - for non-commercial use only

Gurobi 8.0.1 (mac64, Python) logging started Fri Oct  5 17:57:20 2018

Academic license - for non-commercial use only
Optimize a model with 24 rows, 18 columns and 51 nonzeros
Variable types: 0 continuous, 18 integer (9 binary)
Coefficient statistics:
  Matrix range     [1e+00, 8e+01]
  Objective range  [1e+00, 5e+00]
  Bounds range     [1e+00, 1e+00]
  RHS range        [3e+00, 5e+00]
Presolve removed 12 rows and 12 columns
Presolve time: 0.02s

Explored 0 nodes (0 simplex iterations) in 0.05 seconds
Thread count was 1 (of 4 available processors)

Solution count 0

Model is infeasible
Best objective -, best bound -, gap -

Gurobi 8.0.1 (mac64, Python) logging started Fri Oct  5 17:58:20 2018

Academic license - for non-commercial use only
Optimize a model with 24 rows, 18 columns and 51 nonzeros
Variable types: 0 continuous, 18 integer (9 binary)
Coefficient statistics:
  Matrix range     [1e+00, 8e+01]
  Objective range  [1e+00, 5e+00]
  Bounds range     [1e+00, 1e+00]
  RHS range        [1e+00, 4e+00]
Presolve removed 12 rows and 12 columns
Presolve time: 0.12s

Explored 0 nodes (0 simplex iterations) in 0.22 seconds
Thread count was 1 (of 4 available processors)

Solution count 0

Model is infeasible
Best objective -, best bound -, gap -
